c User generated cnf file
p cnf 14 21
13 -10 2 0 
12 5 -9 0 
9 -6 2 0 
4 -6 2 0 
9 14 -9 0 
6 7 -2 0 
11 4 -2 0 
9 5 -12 0 
14 14 -11 0 
8 -12 7 0 
2 -5 4 0 
9 -8 11 0 
1 1 -1 0 
6 -12 1 0 
8 -1 4 0 
9 -6 4 0 
14 6 -7 0 
5 -1 6 0 
4 7 -5 0 
12 -11 13 0 
12 -12 1 0 
